NAME : n20w80.002.338.tour
COMMENT : Length = 338
COMMENT : Found by LKH [Keld Helsgaun] Tue May  2 05:18:25 2017
TYPE : TOUR
DIMENSION : 21
TOUR_SECTION
1
17
2
13
14
10
7
18
6
4
11
15
16
19
5
20
12
8
9
21
3
-1
EOF
